27694
0 0 1 0 0 0 1 0 0 0 1 0 1 1 0 0 1 1 1 1 1 0 0 1 1 1 0 1 1 1 
18 19 2 27 2 12 16 27 18 28 29 28 13 23 28 18 13 10 27 24 18 16 23 24 10 18 27 19 29 2 6 19 19 16 27 6 20 20 24 16 18 20 6 29 20 19 13 16 19 17 24 16 24 16 20 6 18 20 18 25 29 17 18 20 13 25 23 17 28 12 18 12 6 20 23 23 20 23 20 16 10 17 20 25 29 10 6 2 27 25 28 6 25 25 2 13 28 6 17 28 28 16 25 18 29 24 29 24 18 13 19 29 27 12 12 20 28 25 17 13 19 25 17 19 19 16 2 12 19 17 28 24 25 10 23 20 13 13 28 10 12 27 12 25 25 2 24 16 27 25 24 17 23 17 13 28 2 16 13 13 13 27 10 24 23 27 23 29 13 16 23 20 19 10 29 2 27 10 29 10 2 16 2 6 12 20 28 23 17 16 2 2 6 29 25 12 25 2 10 19 
